/*********************************************
 * OPL 12.6.0.0 Data
 * Author: Adrian Rodriguez Bazaga, Pau Rodriguez Esmerats
 * Creation Date: 06/12/2017 at 23:03:07
 *********************************************/

nNurses=273;
maxConsec=2;
maxPresence=7;
maxHours=5;
minHours=1;
hours=24;
demand= [34 34 53 53 34 53 53 37 37 22 5 9 7 11 11 8 10 8 6 2 44 80 40 57  ];
